words_train/words_630_SAT.qaiger
aag 46 16 0 1 30
32
10
14
8
22
4
20
26
6
30
12
2
18
16
28
24
92
34 31 13
36 28 10
38 37 35
40 26 8
42 41 19
44 42 38
46 30 12
48 25 7
50 49 47
52 50 44
54 24 6
56 29 11
58 21 3
60 59 57
62 60 55
64 20 2
66 23 5
68 67 65
70 27 9
72 22 4
74 73 71
76 74 68
78 76 62
80 78 52
82 32 15
84 33 14
86 85 83
88 87 80
90 86 81
92 91 89
i0 1 x[7]
i1 2 z[4]
i2 2 z[6]
i3 2 z[3]
i4 1 x[2]
i5 2 z[1]
i6 1 x[1]
i7 1 x[4]
i8 2 z[2]
i9 1 x[6]
i10 2 z[5]
i11 2 z[0]
i12 1 x[0]
i13 2 z[7]
i14 1 x[5]
i15 1 x[3]
o0 bv[0]
c
simplified
  <=
    1
    xor
      xor
        << 1
          2 z
        invert
          1
      1 x
