words_train/words_630_SAT.qaiger.qdimacs
p cnf 46 91
a 9 10 11 12 13 14 15 16 0
e 1 2 3 4 5 6 7 8 17 18 19 20 21 22 23 24 25 26 27 28 29 30 31 32 33 34 35 36 37 38 39 40 41 42 43 44 45 46 0
15 6 17 0
-15 -17 0
-6 -17 0
-14 -5 18 0
14 -18 0
5 -18 0
18 17 19 0
-18 -19 0
-17 -19 0
-13 -4 20 0
13 -20 0
4 -20 0
20 9 21 0
-20 -21 0
-9 -21 0
-21 -19 22 0
21 -22 0
19 -22 0
-15 -6 23 0
15 -23 0
6 -23 0
12 3 24 0
-12 -24 0
-3 -24 0
24 23 25 0
-24 -25 0
-23 -25 0
-25 -22 26 0
25 -26 0
22 -26 0
-12 -3 27 0
12 -27 0
3 -27 0
14 5 28 0
-14 -28 0
-5 -28 0
10 1 29 0
-10 -29 0
-1 -29 0
29 28 30 0
-29 -30 0
-28 -30 0
-30 27 31 0
30 -31 0
-27 -31 0
-10 -1 32 0
10 -32 0
1 -32 0
11 2 33 0
-11 -33 0
-2 -33 0
33 32 34 0
-33 -34 0
-32 -34 0
13 4 35 0
-13 -35 0
-4 -35 0
-11 -2 36 0
11 -36 0
2 -36 0
36 35 37 0
-36 -37 0
-35 -37 0
-37 -34 38 0
37 -38 0
34 -38 0
-38 -31 39 0
38 -39 0
31 -39 0
-39 -26 40 0
39 -40 0
26 -40 0
-16 7 41 0
16 -41 0
-7 -41 0
16 -7 42 0
-16 -42 0
7 -42 0
42 41 43 0
-42 -43 0
-41 -43 0
43 -40 44 0
-43 -44 0
40 -44 0
-43 40 45 0
43 -45 0
-40 -45 0
45 44 46 0
-45 -46 0
-44 -46 0
46 0
